%%%mzn-stat: initTime=0.008998889
%%%mzn-stat: objective=272
%%%mzn-stat: nodes=24560
%%%mzn-stat: restarts=0
%%%mzn-stat: peakDepth=363
%%%mzn-stat: solveTime=1.233057869
%%%mzn-stat: variables=868
%%%mzn-stat: propagators=613
%%%mzn-stat: failures=4850
%%%mzn-stat: propagations=260865
%%%mzn-stat: nogoods=4850
%%%mzn-stat: AverageConflictSize=21.52020618556701
%%%mzn-stat: NumUnitNogoodsLearned=271
%%%mzn-stat: AverageLearnedNogoodLength=24.427835051546392
%%%mzn-stat: AverageBacktrackAmount=0
%%%mzn-stat: AverageLbd=14.30020618556701
%%%mzn-stat-end
maxleg = 272;
succ = array1d(1..50,[41, 35, 19, 21, 43, 22, 24, 18, 30, 1, 28, 5, 39, 34, 31, 50, 42, 9, 15, 16, 10, 23, 45, 14, 47, 40, 17, 8, 36, 6, 49, 3, 11, 12, 26, 27, 4, 37, 38, 48, 25, 32, 2, 13, 7, 29, 20, 46, 44, 33]);
% time elapsed: 2.73 s
----------
==========
% time elapsed: 2.73 s
%%%mzn-stat: initTime=0.008998889
%%%mzn-stat: objective=272
%%%mzn-stat: nodes=24560
%%%mzn-stat: restarts=0
%%%mzn-stat: peakDepth=363
%%%mzn-stat: solveTime=1.233061448
%%%mzn-stat: variables=868
%%%mzn-stat: propagators=613
%%%mzn-stat: failures=4850
%%%mzn-stat: propagations=260865
%%%mzn-stat: nogoods=4850
%%%mzn-stat: AverageConflictSize=21.52020618556701
%%%mzn-stat: NumUnitNogoodsLearned=271
%%%mzn-stat: AverageLearnedNogoodLength=24.427835051546392
%%%mzn-stat: AverageBacktrackAmount=0
%%%mzn-stat: AverageLbd=14.30020618556701
%%%mzn-stat-end
